NAME : portcgen-20-5
COMMENT : portcgen N=20, seed=5
TYPE : TSP
DIMENSION : 20
EDGE_WEIGHT_TYPE : EUC_2D
NODE_COORD_SECTION
1 162986 18605
2 69142 -17712
3 32950 49840
4 -241124 313216
5 -256077 33706
6 20585 -40133
7 152184 194353
8 206569 220717
9 36539 -238669
10 228858 10140
11 24344 -162945
12 129603 201171
13 -107162 371905
14 -52295 180519
15 -75832 82632
16 425736 282037
17 -225975 203775
18 -94449 373151
19 316436 44147
20 78158 69187
